Cost: 399
0-27-29-45-0
0-32-44-3-0
0-30-2-6-0
0-33-16-51-0
0-43-41-42-0
0-35-19-8-0
0-46-34-4-0
0-40-39-12-0
0-17-26-0
Cost: 399
0-30-2-6-0
0-12-39-40-0
0-33-16-51-0
0-27-52-34-0
0-42-41-43-0
0-32-44-3-0
0-35-19-8-0
0-17-26-0
0-45-29-4-0
Cost: 399
0-27-29-45-0
0-32-44-3-0
0-30-2-6-0
0-33-16-51-0
0-43-41-42-0
0-35-19-8-0
0-46-34-4-0
0-40-39-12-0
0-17-26-0
Cost: 399
0-27-29-45-0
0-32-44-3-0
0-30-2-6-0
0-33-16-51-0
0-43-41-42-0
0-35-19-8-0
0-46-34-4-0
0-40-39-12-0
0-17-26-0
Cost: 399
0-32-44-3-0
0-35-19-8-0
0-27-29-45-0
0-30-2-6-0
0-26-17-0
0-46-34-4-0
0-12-39-40-0
0-42-41-43-0
0-51-16-33-0
Cost: 399
0-46-34-4-0
0-6-2-30-0
0-32-44-3-0
0-33-16-51-0
0-45-29-27-0
0-17-26-0
0-19-35-7-0
0-42-41-43-0
0-40-39-12-0
Cost: 399
0-46-34-4-0
0-6-2-30-0
0-32-44-3-0
0-33-16-51-0
0-45-29-27-0
0-17-26-0
0-19-35-7-0
0-42-41-43-0
0-40-39-12-0
Cost: 399
0-46-34-4-0
0-6-2-30-0
0-32-44-3-0
0-33-16-51-0
0-45-29-27-0
0-17-26-0
0-19-35-7-0
0-42-41-43-0
0-40-39-12-0
Cost: 399
0-46-34-4-0
0-6-2-30-0
0-32-44-3-0
0-33-16-51-0
0-45-29-27-0
0-17-26-0
0-19-35-7-0
0-42-41-43-0
0-40-39-12-0
Cost: 399
0-46-34-4-0
0-6-2-30-0
0-32-44-3-0
0-33-16-51-0
0-45-29-27-0
0-17-26-0
0-19-35-7-0
0-42-41-43-0
0-40-39-12-0
Cost: 399
0-40-39-12-0
0-51-16-33-0
0-26-17-0
0-43-41-42-0
0-27-52-34-0
0-4-45-29-0
0-7-35-19-0
0-30-2-6-0
0-3-44-32-0
Cost: 399
0-40-39-12-0
0-51-16-33-0
0-26-17-0
0-43-41-42-0
0-27-52-34-0
0-4-45-29-0
0-7-35-19-0
0-30-2-6-0
0-3-44-32-0
Cost: 399
0-40-39-12-0
0-51-16-33-0
0-26-17-0
0-43-41-42-0
0-27-52-34-0
0-4-45-29-0
0-7-35-19-0
0-30-2-6-0
0-3-44-32-0
Cost: 399
0-6-2-30-0
0-51-16-33-0
0-45-29-27-0
0-42-41-43-0
0-26-17-0
0-12-39-40-0
0-4-34-46-0
0-35-19-8-0
0-32-44-3-0
Cost: 399
0-40-39-12-0
0-51-16-33-0
0-26-17-0
0-43-41-42-0
0-27-52-34-0
0-4-45-29-0
0-7-35-19-0
0-30-2-6-0
0-3-44-32-0
Cost: 399
0-40-39-12-0
0-51-16-33-0
0-26-17-0
0-43-41-42-0
0-27-52-34-0
0-4-45-29-0
0-7-35-19-0
0-30-2-6-0
0-3-44-32-0
Cost: 399
0-40-39-12-0
0-51-16-33-0
0-26-17-0
0-43-41-42-0
0-27-52-34-0
0-4-45-29-0
0-7-35-19-0
0-30-2-6-0
0-3-44-32-0
Cost: 399
0-43-41-42-0
0-32-44-3-0
0-26-17-0
0-19-35-7-0
0-27-52-34-0
0-6-2-30-0
0-51-16-33-0
0-12-39-40-0
0-4-45-29-0
Cost: 399
0-43-41-42-0
0-32-44-3-0
0-26-17-0
0-19-35-7-0
0-27-52-34-0
0-6-2-30-0
0-51-16-33-0
0-12-39-40-0
0-4-45-29-0
Cost: 399
0-43-41-42-0
0-32-44-3-0
0-26-17-0
0-19-35-7-0
0-27-52-34-0
0-6-2-30-0
0-51-16-33-0
0-12-39-40-0
0-4-45-29-0
Cost: 399
0-43-41-42-0
0-32-44-3-0
0-26-17-0
0-19-35-7-0
0-27-52-34-0
0-6-2-30-0
0-51-16-33-0
0-12-39-40-0
0-4-45-29-0
Cost: 399
0-43-41-42-0
0-32-44-3-0
0-26-17-0
0-19-35-7-0
0-27-52-34-0
0-6-2-30-0
0-51-16-33-0
0-12-39-40-0
0-4-45-29-0
Cost: 399
0-27-52-34-0
0-33-16-51-0
0-4-29-45-0
0-12-39-40-0
0-6-2-30-0
0-32-44-3-0
0-26-17-0
0-19-35-7-0
0-42-41-43-0
Cost: 399
0-43-41-42-0
0-32-44-3-0
0-26-17-0
0-19-35-7-0
0-27-52-34-0
0-6-2-30-0
0-51-16-33-0
0-12-39-40-0
0-4-45-29-0
Cost: 399
0-43-41-42-0
0-32-44-3-0
0-26-17-0
0-19-35-7-0
0-27-52-34-0
0-6-2-30-0
0-51-16-33-0
0-12-39-40-0
0-4-45-29-0
Cost: 399
0-43-41-42-0
0-32-44-3-0
0-26-17-0
0-19-35-7-0
0-27-52-34-0
0-6-2-30-0
0-51-16-33-0
0-12-39-40-0
0-4-45-29-0
Cost: 399
0-43-41-42-0
0-45-29-27-0
0-40-39-12-0
0-30-2-6-0
0-32-44-3-0
0-19-35-7-0
0-33-16-51-0
0-17-26-0
0-4-34-46-0
Cost: 399
0-43-41-42-0
0-33-16-51-0
0-30-2-6-0
0-40-39-12-0
0-17-26-0
0-45-29-4-0
0-34-52-27-0
0-32-44-3-0
0-8-19-35-0
Cost: 399
0-4-0
0-30-2-6-0
0-51-16-33-0
0-46-52-34-0
0-42-41-43-0
0-26-27-29-45-0
0-12-40-17-0
0-7-35-19-0
0-3-32-39-0
Cost: 399
0-4-0
0-46-52-34-0
0-33-16-51-0
0-43-41-42-0
0-3-32-39-0
0-30-2-6-0
0-8-19-35-0
0-12-40-17-0
0-45-29-27-26-0
Cost: 399
0-26-27-29-45-0
0-4-0
0-8-19-35-0
0-6-2-30-0
0-51-16-33-0
0-46-52-34-0
0-3-32-39-0
0-43-41-42-0
0-12-40-17-0
